c turning on binary mode checking
c parsing input formula with 202048 variables and 780985 clauses
c finished parsing, read 17172928 bytes from proof file
c detected empty clause; start verification via backward checking
c 16544 of 780985 clauses in core                            
c 22219 of 456366 lemmas in core using 157663 resolution steps
c 0 RAT lemmas in core; 1577 redundant literals in core lemmas
s VERIFIED
c verification time: 2.330 seconds
